<?xml version = "1.0" standalone="yes"?>
<!-- This file has been generated by DOcplex version 2.23.222  -->
<CPLEXSolution version="1.0">
 <header
   problemName="CVRP"
   objectiveValue="9915.26"
  />
 <variables>
  <variable name="x_0_2" index="1" value="1.00000"/>
  <variable name="x_0_3" index="2" value="1.00000"/>
  <variable name="x_0_4" index="3" value="1.00000"/>
  <variable name="x_0_5" index="4" value="1.00000"/>
  <variable name="x_0_6" index="5" value="1.00000"/>
  <variable name="x_0_7" index="6" value="1.00000"/>
  <variable name="x_0_9" index="8" value="1.00000"/>
  <variable name="x_1_0" index="10" value="1.00000"/>
  <variable name="x_2_10" index="29" value="1.00000"/>
  <variable name="x_3_0" index="30" value="1.00000"/>
  <variable name="x_4_8" index="47" value="1.00000"/>
  <variable name="x_5_0" index="50" value="1.00000"/>
  <variable name="x_6_0" index="60" value="1.00000"/>
  <variable name="x_7_0" index="70" value="1.00000"/>
  <variable name="x_8_0" index="80" value="1.00000"/>
  <variable name="x_9_1" index="91" value="1.00000"/>
  <variable name="x_10_0" index="100" value="1.00000"/>
  <variable name="u_1" index="110" value="14.00000"/>
  <variable name="u_2" index="111" value="4.00000"/>
  <variable name="u_3" index="112" value="18.00000"/>
  <variable name="u_4" index="113" value="13.00000"/>
  <variable name="u_5" index="114" value="15.00000"/>
  <variable name="u_6" index="115" value="14.00000"/>
  <variable name="u_7" index="116" value="18.00000"/>
  <variable name="u_8" index="117" value="20.00000"/>
  <variable name="u_9" index="118" value="3.00000"/>
  <variable name="u_10" index="119" value="17.00000"/>
 </variables>
</CPLEXSolution>
